Route #1: 125 31 69 120 51 109 83
Route #2: 38 118 28 127 47
Route #3: 24 97 8 37 12 16 42 99 14 74
Route #4: 32 114 73 96 95 116 92 49 100
Route #5: 102 112 72 26 36 107
Route #6: 70 117 115 122 106 5 123
Route #7: 71 65 105 76 79 10 104 108
Route #8: 110 17 101 58 40 55 41 61 85 11 126
Route #9: 53 80 68 98 4 111 94 121
Route #10: 54 6 45 29 81 128 87
Route #11: 78 119 63 9 124 82
Route #12: 86 88 113 27 52 20 50
Route #13: 7 22 46 33 21 34 2 48 19
Route #14: 3
Route #15: 93 39 25 84 43 30 67
Route #16: 60 77 35 57 13 56 62
Route #17: 15 66 89 103 75 91
Route #18: 64 18 59 23 1 44 90
